param set_len = 50;
param target = 418985125;
param values := [0] 32662576 [1] 18835520 [2] 30654607 [3] 25563465 [4] 31693503 [5] 7713340 [6] 6180143 [7] 2577426 [8] 14111829 [9] 18497546 [10] 17691717 [11] 27707004 [12] 21558245 [13] 9176456 [14] 30765553 [15] 4381054 [16] 15335831 [17] 28624231 [18] 5416315 [19] 9365367 [20] 17759170 [21] 19289365 [22] 21930937 [23] 32685351 [24] 12110525 [25] 27964570 [26] 1011553 [27] 17027484 [28] 7673904 [29] 10390568 [30] 15761908 [31] 1925556 [32] 33316203 [33] 19905436 [34] 17642992 [35] 30779499 [36] 24425433 [37] 27044995 [38] 18204867 [39] 16146056 [40] 11464790 [41] 1424829 [42] 14541807 [43] 13696826 [44] 1741407 [45] 15448355 [46] 19899557 [47] 5318480 [48] 31825131 [49] 11727235 ;
